p cnf 45 102
1 6 0
2 7 0
3 8 0
4 9 0
5 10 0
36 -1 -3 0
-36 1 0
-36 -3 0
37 -2 -4 0
-37 2 0
-37 -4 0
38 -3 -5 0
-38 3 0
-38 -5 0
39 -4 -6 0
-39 4 0
-39 -6 0
40 -5 -7 0
-40 5 0
-40 -7 0
36 37 38 39 40 0
41 -3 -1 0
-41 3 0
-41 -1 0
42 -4 -2 0
-42 4 0
-42 -2 0
43 -5 -3 0
-43 5 0
-43 -3 0
44 -6 -4 0
-44 6 0
-44 -4 0
45 -7 -5 0
-45 7 0
-45 -5 0
41 42 43 44 45 0
11 0
12 0
13 0
14 0
15 0
16 0
17 0
18 0
19 0
-20 0
21 0
22 0
23 0
24 0
-25 0
26 0
27 0
28 0
29 0
30 0
31 0
-32 0
-33 0
34 0
35 0
-1 -2 12 0
-1 -3 13 0
-1 -4 14 0
-1 -5 15 0
-2 -1 16 0
-2 -3 18 0
-2 -4 19 0
-2 -5 20 0
-3 -1 21 0
-3 -2 22 0
-3 -4 24 0
-3 -5 25 0
-4 -1 26 0
-4 -2 27 0
-4 -3 28 0
-4 -5 30 0
-5 -1 31 0
-5 -2 32 0
-5 -3 33 0
-5 -4 34 0
-6 -7 12 0
-6 -8 13 0
-6 -9 14 0
-6 -10 15 0
-7 -6 16 0
-7 -8 18 0
-7 -9 19 0
-7 -10 20 0
-8 -6 21 0
-8 -7 22 0
-8 -9 24 0
-8 -10 25 0
-9 -6 26 0
-9 -7 27 0
-9 -8 28 0
-9 -10 30 0
-10 -6 31 0
-10 -7 32 0
-10 -8 33 0
-10 -9 34 0
